0
1 2 -1
1
0 12 -1
2
0 3 -1
3
2 4 -1
4
3 5 -1
5
4 -1
6
-1
7
-1
8
9 -1
9
8 10 -1
10
9 12 -1
11
-1
12
10 1 -1
-2
335 39 636 36 399 61 400 214 346 279 296 354 514 214 584 280 641 356 754 216 786 185 515 56 754 54 -2
